nApps = 210
nRes = 9
nActs = 400
nNetworks = 6

assignmentToResources = [1,1,3,3,1,2,1,3,1,1,1,3,1,2,2,1,3,3,1,1,1,1,1,3,2,1,2,2,2,2,2,2,2,3,1,2,2,2,2,2,3,1,3,1,1,2,2,3,1,1,1,1,1,1,1,1,3,3,3,1,1,3,1,3,1,3,1,1,3,1,1,1,2,3,1,1,1,1,1,1,1,2,1,1,1,1,2,3,1,3,2,1,2,2,1,1,2,2,1,2,4,4,4,4,4,4,6,6,6,6,4,5,5,5,4,6,6,4,4,6,6,6,6,4,5,6,6,6,6,6,6,6,4,4,4,4,4,4,6,6,5,5,5,5,5,5,5,5,5,5,5,5,5,5,6,6,6,6,4,5,5,5,5,5,5,5,5,5,5,5,5,5,5,4,4,4,5,5,5,5,6,6,6,4,4,4,4,4,4,4,4,4,4,6,6,6,4,4,4,6,4,4,6,6,6,6,6,6,4,6,4,4,4,4,6,4,4,4,4,4,5,5,5,5,4,4,5,5,4,4,5,5,5,4,5,5,4,4,5,7,6,8,4,9,5,7,5,9,5,7,5,7,4,8,5,7,4,8,5,7,5,9,8,9,9,9,8,8,7,8,7,7,9,9,7,7,9,8,8,8,9,8,8,8,8,8,7,7,7,8,8,8,8,7,8,9,8,8,9,9,8,7,7,9,9,7,9,7,7,7,7,7,9,7,7,7,8,8,7,7,8,9,9,7,7,9,7,7,7,7,9,9,7,7,7,9,9,9,7,7,9,7,7,8,7,9,9,9,9,9,8,9,8,8,9,7,7,7,8,9,8,7,9,8,7,8,7,7,7,7,8,8,8,9,9,8,7,9,8,8,9,9,7,7,7,7,8,9,7,7,9,9,7,7,7,8,7,7,8,8];

processingTimes = [120,120,160,64,88,104,112,160,136,104,136,120,112,56,88,96,120,128,64,80,160,96,128,136,56,112,104,128,72,112,168,80,80,120,160,128,80,120,136,128,128,136,120,168,104,128,128,160,104,136,144,72,96,104,168,168,120,104,104,176,104,104,64,128,112,160,112,96,128,104,160,160,120,128,168,64,96,80,144,64,152,120,112,144,64,168,72,136,112,152,128,120,144,104,104,136,104,136,128,120,4,4,4,3,3,4,3,4,3,3,5,3,4,500,500,3,3,3,500,3,4,500,4,1000,3,13,500,4,500,3,4,3,2500,3,8,5,4,4,3,500,500,4,13,5,3,3,500,8,8,3,3,3,3,3,4,4,4,4,5,4,3,3,500,4,3,500,500,3,500,4,4,500,4,500,4,4,4,3,4,4,500,4,500,4,500,3,4,500,4,5,5,4,3,5,500,500,4,4,4,7,3,3,3,3,11,8,500,3,4,3,3,3,8,4,4,3,9,4,500,4,3,3,500,3,4,4,4,4,4,4,4,4,4,3,3,500,3,3,4,4,5,5,3,3,3,3,100,100,5,5,4,4,4,4,4,4,4,4,500,500,3,3,4,4,4,3,3,4,3,4,3,3,5,3,4,500,500,3,3,3,500,3,4,500,4,1000,3,13,500,4,500,3,4,3,2500,3,8,5,4,4,3,500,500,4,13,5,3,3,500,8,8,3,3,3,3,3,4,4,4,4,5,4,3,3,500,4,3,500,500,3,500,4,4,500,4,500,4,4,4,3,4,4,500,4,500,4,500,3,4,500,4,5,5,4,3,5,500,500,4,4,4,7,3,3,3,3,11,8,500,3,4,3,3,3,8,4,4,3,9,4,500,4,3,3,500,3,4,4,4,4,4,4,4,4,4,3,3,500,3,3];

periods = [20000,100000,1000,10000,20000,10000,20000,20000,100000,20000,20000,100000,10000,20000,10000,100000,100000,20000,20000,100000,20000,2000,20000,10000,100000,10000,1000,100000,100000,100000,100000,100000,10000,10000,20000,20000,20000,10000,10000,10000,100000,10000,10000,20000,20000,100000,1000,5000,50000,50000,10000,20000,20000,5000,10000,10000,20000,20000,20000,10000,20000,50000,10000,100000,10000,20000,20000,20000,10000,20000,100000,20000,20000,1000,20000,20000,50000,20000,100000,20000,10000,10000,20000,10000,20000,50000,20000,100000,10000,10000,10000,20000,10000,20000,10000,100000,10000,100000,20000,10000,20000,20000,20000,100000,100000,100000,1000,10000,10000,10000,20000,10000,10000,10000,20000,20000,20000,20000,20000,100000,100000,100000,100000,10000,10000,100000,100000,100000,100000,20000,20000,20000,100000,100000,100000,20000,20000,20000,10000,10000,100000,100000,100000,1000,100000,100000,100000,100000,100000,100000,100000,100000,10000,10000,10000,10000,10000,10000,20000,20000,20000,20000,20000,20000,20000,20000,10000,10000,10000,10000,10000,10000,10000,10000,20000,20000,100000,100000,1000,1000,5000,5000,5000,50000,50000,50000,50000,10000,10000,20000,20000,20000,10000,20000,20000,20000,20000,20000,20000,50000,10000,10000,100000,100000,100000,100000,100000,20000,20000,10000,20000,100000,100000,20000,1000,20000,20000,20000,10000,10000,10000,10000,10000,10000,50000,50000,20000,20000,10000,10000,10000,10000,10000,10000,10000,10000,20000,20000,100000,100000,100000,100000,100000,100000,100000,100000,1000,1000,10000,10000,10000,10000,10000,10000,10000,10000,20000,20000,10000,10000,10000,10000,20000,20000,20000,100000,100000,100000,1000,10000,10000,10000,20000,10000,10000,10000,20000,20000,20000,20000,20000,100000,100000,100000,100000,10000,10000,100000,100000,100000,100000,20000,20000,20000,100000,100000,100000,20000,20000,20000,10000,10000,100000,100000,100000,1000,100000,100000,100000,100000,100000,100000,100000,100000,10000,10000,10000,10000,10000,10000,20000,20000,20000,20000,20000,20000,20000,20000,10000,10000,10000,10000,10000,10000,10000,10000,20000,20000,100000,100000,1000,1000,5000,5000,5000,50000,50000,50000,50000,10000,10000,20000,20000,20000,10000,20000,20000,20000,20000,20000,20000,50000,10000,10000,100000,100000,100000,100000,100000,20000,20000,10000,20000,100000,100000,20000,1000,20000,20000,20000,10000,10000,10000,10000,10000,10000,50000,50000,20000,20000,10000,10000,10000,10000,10000,10000,10000,10000,20000,20000];

assignmentToClusters = [1,2,3,4,5,6,7,8,9,5,10,11,12,13,14,2,15,16,5,17,5,18,5,19,20,12,3,21,22,23,24,2,25,26,5,27,28,29,12,12,30,12,31,5,5,2,32,33,34,35,36,37,37,38,12,12,39,40,41,42,43,44,45,46,12,47,5,48,49,50,51,52,13,53,5,54,55,56,57,5,58,12,59,60,61,62,63,2,64,65,66,67,68,37,69,70,65,71,72,42,73,74,75,76,77,78,79,80,81,82,83,84,85,86,87,88,89,90,91,92,93,94,95,96,97,98,99,100,101,102,103,104,105,106,107,108,109,110,111,112,113,114,115,116,117,118,119,120,121,122,123,124,125,126,127,128,129,130,131,132,133,134,135,136,137,138,139,140,141,142,143,144,145,146,147,148,149,150,151,152,153,154,155,156,157,158,159,160,161,162,163,164,165,166,167,168,169,170,171,172,173,174,175,176,177,178,179,180,181,182,183,184,185,186,187,188,189,190,191,192,193,194,195,196,197,198,199,200,201,202,203,204,205,206,207,208,209,210,2,2,2,2,2,2,2,2,3,3,12,12,12,12,12,12,12,12,37,37,42,42,65,65,73,74,75,76,77,78,79,80,81,82,83,84,85,86,87,88,89,90,91,92,93,94,95,96,97,98,99,100,101,102,103,104,105,106,107,108,109,110,111,112,113,114,115,116,117,118,119,120,121,122,123,124,125,126,127,128,129,130,131,132,133,134,135,136,137,138,139,140,141,142,143,144,145,146,147,148,149,150,151,152,153,154,155,156,157,158,159,160,161,162,163,164,165,166,167,168,169,170,171,172,173,174,175,176,177,178,179,180,181,182,183,184,185,186,187,188,189,190,191,192,193,194,195,196,197,198,199,200,201,202,203,204,205,206,207,208,209,210];

precedenceAdjList = [[],[239],[247],[],[],[],[],[],[],[],[],[],[64,55],[72],[],[245],[],[],[44,20],[],[22],[],[9],[],[],[12],[],[],[],[],[],[],[],[],[44],[],[],[],[],[253],[],[],[],[],[43],[241],[],[],[],[],[],[52],[],[],[251],[255],[],[],[],[259],[],[],[],[],[54,249],[],[74,18,34],[],[],[],[],[],[],[],[4],[],[],[],[],[74],[],[],[],[],[],[],[],[243],[],[261],[],[],[],[257],[],[],[],[],[],[],[],[],[],[],[],[],[],[],[],[],[],[],[],[],[],[],[],[],[],[],[],[],[],[],[],[],[],[],[],[],[],[],[],[],[],[],[],[],[],[],[],[],[],[],[],[],[],[],[],[],[],[],[],[],[],[],[],[],[],[],[],[],[],[],[],[],[],[],[],[],[],[],[],[],[],[],[],[],[],[],[],[],[],[],[],[],[],[],[],[],[],[],[],[],[],[],[],[],[],[],[],[],[],[],[],[],[],[],[],[],[],[],[],[],[],[],[],[],[],[],[],[],[],[],[],[],[],[],[],[],[],[],[],[],[],[],[],[],[45],[238],[87],[240],[15],[242],[31],[244],[26],[246],[81],[248],[39],[250],[41],[252],[38],[254],[51],[256],[99],[258],[96],[260],[100],[101],[102],[103],[104],[105],[106],[107],[108],[109],[110],[111],[112],[113],[114],[115],[116],[117],[118],[119],[120],[121],[122],[123],[124],[125],[126],[127],[128],[129],[130],[131],[132],[133],[134],[135],[136],[137],[138],[139],[140],[141],[142],[143],[144],[145],[146],[147],[148],[149],[150],[151],[152],[153],[154],[155],[156],[157],[158],[159],[160],[161],[162],[163],[164],[165],[166],[167],[168],[169],[170],[171],[172],[173],[174],[175],[176],[177],[178],[179],[180],[181],[182],[183],[184],[185],[186],[187],[188],[189],[190],[191],[192],[193],[194],[195],[196],[197],[198],[199],[200],[201],[202],[203],[204],[205],[206],[207],[208],[209],[210],[211],[212],[213],[214],[215],[216],[217],[218],[219],[220],[221],[222],[223],[224],[225],[226],[227],[228],[229],[230],[231],[232],[233],[234],[235],[236],[237]];